c turning on binary mode checking
c parsing input formula with 259840 variables and 1039929 clauses
c finished parsing, read 23101417 bytes from proof file
c detected empty clause; start verification via backward checking
c 6724 of 1039929 clauses in core                            
c 4923 of 600631 lemmas in core using 42897 resolution steps
c 0 RAT lemmas in core; 334 redundant literals in core lemmas
s VERIFIED
c verification time: 2.632 seconds
